decision_x1=[0,2];
decision_x2=[0,2];
decision_x3=[0,2];
decision_x4=[0,2];
decision_x5=[0,2];
decision_x6=[0,2];
random_y1=[0,2];
random_y2=[0,2];
constraint_x2_x1=[
0,0,8.6|
0,1,1.7|
0,2,3.8|
1,0,6.2|
1,1,6.3|
1,2,4|
2,0,8|
2,1,1|
2,2,9.6|
];
constraint_x4_x1=[
0,0,4.7|
0,1,5.3|
0,2,4.2|
1,0,2.5|
1,1,2.9|
1,2,0.38|
2,0,6.9|
2,1,7.5|
2,2,0.83|
];
constraint_x4_x2=[
0,0,1.7|
0,1,6.3|
0,2,3.3|
1,0,3.1|
1,1,6.2|
1,2,2.8|
2,0,3.7|
2,1,2.3|
2,2,4.7|
];
constraint_x4_x3=[
0,0,5|
0,1,5.8|
0,2,1.8|
1,0,3.6|
1,1,4.7|
1,2,8.6|
2,0,3.7|
2,1,6.7|
2,2,3.4|
];
constraint_x5_x2=[
0,0,8.1|
0,1,8.6|
0,2,6.3|
1,0,2.5|
1,1,5.7|
1,2,2.7|
2,0,0.33|
2,1,6|
2,2,3.7|
];
constraint_x5_x3=[
0,0,9.7|
0,1,7.3|
0,2,0.52|
1,0,8|
1,1,1.4|
1,2,6.6|
2,0,2.5|
2,1,3|
2,2,8.4|
];
constraint_x6_x3=[
0,0,0.17|
0,1,5.6|
0,2,2.7|
1,0,9.7|
1,1,5.5|
1,2,6.8|
2,0,9.4|
2,1,7|
2,2,4.6|
];
constraint_x6_x4=[
0,0,4|
0,1,3.9|
0,2,0.52|
1,0,0.17|
1,1,5.9|
1,2,5.9|
2,0,3.6|
2,1,1.3|
2,2,9.9|
];
constraint_x1_y1=[
0,0,4.3|
0,1,9.3|
0,2,5.2|
1,0,5.8|
1,1,8.8|
1,2,5.4|
2,0,3.5|
2,1,5.1|
2,2,3.7|
];
constraint_x2_y2=[
0,0,1.3|
0,1,8.9|
0,2,9.9|
1,0,0.55|
1,1,5.4|
1,2,8.6|
2,0,4.7|
2,1,7.6|
2,2,5.1|
];
initial_distribution_y1=[0.26,0.54,0.2];
initial_distribution_y2=[0.32,0.24,0.44];
transition_y1=[
0.62,0.27,0.1|
0.34,0.19,0.47|
0.41,0.38,0.2|
];
transition_y2=[
0.33,0.23,0.44|
0.17,0.67,0.17|
0.51,0.41,0.08|
];
